p wcnf 163 244 245 
1 -21 -41 0 
1 123 -118 0 
1 -150 3 0 
1 -131 -54 0 
1 121 132 0 
1 -91 -143 0 
1 106 89 0 
1 -132 42 0 
1 -136 -26 0 
1 157 79 0 
1 -5 68 0 
1 4 78 0 
1 -40 101 0 
1 -28 -44 0 
1 -138 -76 0 
1 128 7 0 
1 -134 27 0 
1 -131 -104 0 
1 78 158 0 
1 -23 127 0 
1 157 -127 0 
1 -47 -78 0 
1 -151 51 0 
1 89 -10 0 
1 -111 -2 0 
1 -104 -45 0 
1 -68 -47 0 
1 -127 140 0 
1 109 -99 0 
1 -94 -119 0 
1 43 146 0 
1 -22 -136 0 
1 163 134 0 
1 35 87 0 
1 -116 -35 0 
1 -129 -76 0 
1 -30 9 0 
1 6 -7 0 
1 -3 -90 0 
1 -6 -121 0 
1 43 2 0 
1 25 -163 0 
1 -19 -117 0 
1 -37 153 0 
1 -158 105 0 
1 -140 -156 0 
1 84 -34 0 
1 49 -54 0 
1 -100 120 0 
1 -26 -119 0 
1 35 -128 0 
1 108 88 0 
1 145 -59 0 
1 133 -97 0 
1 -143 98 0 
1 -72 89 0 
1 -138 48 0 
1 148 131 0 
1 25 -95 0 
1 -8 -10 0 
1 137 145 0 
1 130 135 0 
1 27 51 0 
1 9 -124 0 
1 -149 -74 0 
1 155 -48 0 
1 -99 141 0 
1 113 -69 0 
1 139 157 0 
1 28 -144 0 
1 -59 15 0 
1 59 85 0 
1 -62 -139 0 
1 63 -125 0 
1 26 98 0 
1 7 94 0 
1 -99 -122 0 
1 -58 -15 0 
1 -44 8 0 
1 -93 105 0 
1 -87 -51 0 
1 53 -42 0 
1 -28 162 0 
1 -82 -33 0 
1 48 -121 0 
1 58 152 0 
1 -17 16 0 
1 107 -41 0 
1 148 20 0 
1 -148 -135 0 
1 -81 -77 0 
1 -158 -157 0 
1 161 138 0 
1 97 115 0 
1 104 -5 0 
1 -139 -28 0 
1 -22 110 0 
1 33 -14 0 
1 -146 -158 0 
1 122 -10 0 
1 134 -30 0 
1 -128 94 0 
1 -70 143 0 
1 -116 -130 0 
1 -88 -107 0 
1 -113 -136 0 
1 90 8 0 
1 -106 69 0 
1 -91 30 0 
1 -142 -51 0 
1 107 92 0 
1 -27 -161 0 
1 11 -30 0 
1 -131 -6 0 
1 39 -100 0 
1 -47 -45 0 
1 99 -109 0 
1 -118 -157 0 
1 98 76 0 
1 -8 70 0 
1 -81 69 0 
1 -11 -160 0 
1 -22 -108 0 
1 -141 80 0 
1 -145 32 0 
1 119 133 0 
1 132 -55 0 
1 56 115 0 
1 9 -48 0 
1 -131 -45 0 
1 -90 98 0 
1 47 -137 0 
1 -4 -63 0 
1 -147 159 0 
1 -137 -88 0 
1 -121 -79 0 
1 -37 115 0 
1 -42 -147 0 
1 75 -146 0 
1 -46 33 0 
1 135 -47 0 
1 -155 -4 0 
1 -61 155 0 
1 7 -65 0 
1 -125 -75 0 
1 45 -86 0 
1 -94 158 0 
1 -162 51 0 
1 83 -111 0 
1 -91 101 0 
1 -136 -87 0 
1 -113 68 0 
1 26 -143 0 
1 -113 -66 0 
1 5 -156 0 
1 -116 80 0 
1 160 -112 0 
1 54 121 0 
1 -152 -70 0 
1 -14 -6 0 
1 154 -157 0 
1 -26 22 0 
1 -54 34 0 
1 51 -73 0 
1 -110 -148 0 
1 35 -51 0 
1 -23 -119 0 
1 -74 -14 0 
1 -146 4 0 
1 141 -86 0 
1 146 6 0 
1 119 35 0 
1 -162 -90 0 
1 115 107 0 
1 -78 71 0 
1 141 26 0 
1 -42 -11 0 
1 5 -31 0 
1 -6 97 0 
1 19 86 0 
1 41 -110 0 
1 51 35 0 
1 -157 -8 0 
1 -14 149 0 
1 -45 -17 0 
1 137 48 0 
1 -76 72 0 
1 53 -105 0 
1 65 21 0 
1 63 -4 0 
1 -153 124 0 
1 149 57 0 
1 98 -125 0 
1 153 -82 0 
1 -52 65 0 
1 86 -22 0 
1 141 103 0 
1 66 -6 0 
1 -163 114 0 
1 -19 156 0 
1 -78 -150 0 
1 -34 20 0 
1 -41 -54 0 
1 -11 -96 0 
1 55 147 0 
1 100 133 0 
1 109 -150 0 
1 -79 16 0 
1 -87 -162 0 
1 -141 45 0 
1 -80 -53 0 
1 98 41 0 
1 -95 110 0 
1 156 102 0 
1 129 -104 0 
1 35 -117 0 
1 144 -99 0 
1 -116 -88 0 
1 -74 -30 0 
1 -39 30 0 
1 -126 79 0 
1 -74 41 0 
1 63 -61 0 
1 -59 -68 0 
1 135 -94 0 
1 -22 -57 0 
1 -88 -80 0 
1 153 2 0 
1 -152 -79 0 
1 -79 -142 0 
1 -140 152 0 
1 15 -85 0 
1 121 -133 0 
1 120 -146 0 
1 11 80 0 
1 -134 -37 0 
1 135 -105 0 
1 140 85 0 
1 -71 20 0 
1 92 135 0 
1 -73 53 0 
1 -33 96 0 
1 73 -64 0 
1 -38 -137 0 
